experimental-results/original-data/fig4/urquhart-simon-04-01.cnf
c Random Instance of Urquhart's Problem for SAT (size=4 randomSeed=1).
c Like Hole, this problem as been proved to be exponential for resolution.
c N.B. : instance is unsatisfiable by construction.
c 
c Come from the paper 'Hard Examples for Resolution'.
c        Source : Laurent Simon, simon@lri.fr. May 1999.
c 
c n=4, so there is m^2=16 vertices in each part of the bipartite graph. 
c Bases creations : 
c   - a '1' charge is 'there must be an even number of negated vars'
c   - edges contains variables from which all subbases are constructed.
c vertex A0 :(charge=1), (edges=[7,64])
c vertex A1 :(charge=0), (edges=[43,64,16])
c vertex A2 :(charge=1), (edges=[52,65,35,63,16,73])
c vertex A3 :(charge=1), (edges=[19,6,73,50])
c vertex A4 :(charge=1), (edges=[23,79,40,50,51])
c vertex A5 :(charge=1), (edges=[47,60,51,44])
c vertex A6 :(charge=0), (edges=[34,44,4])
c vertex A7 :(charge=0), (edges=[67,61,36,29,22,4,59])
c vertex A8 :(charge=1), (edges=[30,9,2,13,1,59,78])
c vertex A9 :(charge=1), (edges=[32,5,75,78,18])
c vertex A10 :(charge=0), (edges=[11,3,48,18,41])
c vertex A11 :(charge=1), (edges=[27,12,56,17,41,37])
c vertex A12 :(charge=0), (edges=[42,20,37,53])
c vertex A13 :(charge=1), (edges=[26,10,71,25,53,70])
c vertex A14 :(charge=1), (edges=[8,54,57,21,45,70,66])
c vertex A15 :(charge=0), (edges=[28,49,14,33,66])
c vertex B0 :(charge=0), (edges=[42,36,10,24])
c vertex B1 :(charge=0), (edges=[30,6,60,5,24,76])
c vertex B2 :(charge=0), (edges=[47,79,9,33,76,38])
c vertex B3 :(charge=0), (edges=[11,2,38,31])
c vertex B4 :(charge=1), (edges=[32,63,40,21,31,68])
c vertex B5 :(charge=0), (edges=[67,68,74])
c vertex B6 :(charge=1), (edges=[19,65,12,74,15])
c vertex B7 :(charge=1), (edges=[7,61,1,15,69])
c vertex B8 :(charge=0), (edges=[34,17,69,58])
c vertex B9 :(charge=0), (edges=[26,29,58,55])
c vertex B10 :(charge=0), (edges=[52,3,20,55,39])
c vertex B11 :(charge=1), (edges=[43,35,71,49,39,62])
c vertex B12 :(charge=1), (edges=[8,13,48,25,14,62,72])
c vertex B13 :(charge=1), (edges=[28,57,72,46])
c vertex B14 :(charge=1), (edges=[27,22,75,45,46,77])
c vertex B15 :(charge=0), (edges=[23,56,54,77])
c 
p cnf 79 710
7 64 0
-7 -64 0
43 64 -16 0
43 -64 16 0
-43 64 16 0
-43 -64 -16 0
52 65 35 63 16 73 0
52 65 35 63 -16 -73 0
52 65 35 -63 16 -73 0
52 65 35 -63 -16 73 0
52 65 -35 63 16 -73 0
52 65 -35 63 -16 73 0
52 65 -35 -63 16 73 0
52 65 -35 -63 -16 -73 0
52 -65 35 63 16 -73 0
52 -65 35 63 -16 73 0
52 -65 35 -63 16 73 0
52 -65 35 -63 -16 -73 0
52 -65 -35 63 16 73 0
52 -65 -35 63 -16 -73 0
52 -65 -35 -63 16 -73 0
52 -65 -35 -63 -16 73 0
-52 65 35 63 16 -73 0
-52 65 35 63 -16 73 0
-52 65 35 -63 16 73 0
-52 65 35 -63 -16 -73 0
-52 65 -35 63 16 73 0
-52 65 -35 63 -16 -73 0
-52 65 -35 -63 16 -73 0
-52 65 -35 -63 -16 73 0
-52 -65 35 63 16 73 0
-52 -65 35 63 -16 -73 0
-52 -65 35 -63 16 -73 0
-52 -65 35 -63 -16 73 0
-52 -65 -35 63 16 -73 0
-52 -65 -35 63 -16 73 0
-52 -65 -35 -63 16 73 0
-52 -65 -35 -63 -16 -73 0
19 6 73 50 0
19 6 -73 -50 0
19 -6 73 -50 0
19 -6 -73 50 0
-19 6 73 -50 0
-19 6 -73 50 0
-19 -6 73 50 0
-19 -6 -73 -50 0
23 79 40 50 51 0
23 79 40 -50 -51 0
23 79 -40 50 -51 0
23 79 -40 -50 51 0
23 -79 40 50 -51 0
23 -79 40 -50 51 0
23 -79 -40 50 51 0
23 -79 -40 -50 -51 0
-23 79 40 50 -51 0
-23 79 40 -50 51 0
-23 79 -40 50 51 0
-23 79 -40 -50 -51 0
-23 -79 40 50 51 0
-23 -79 40 -50 -51 0
-23 -79 -40 50 -51 0
-23 -79 -40 -50 51 0
47 60 51 44 0
47 60 -51 -44 0
47 -60 51 -44 0
47 -60 -51 44 0
-47 60 51 -44 0
-47 60 -51 44 0
-47 -60 51 44 0
-47 -60 -51 -44 0
34 44 -4 0
34 -44 4 0
-34 44 4 0
-34 -44 -4 0
67 61 36 29 22 4 -59 0
67 61 36 29 22 -4 59 0
67 61 36 29 -22 4 59 0
67 61 36 29 -22 -4 -59 0
67 61 36 -29 22 4 59 0
67 61 36 -29 22 -4 -59 0
67 61 36 -29 -22 4 -59 0
67 61 36 -29 -22 -4 59 0
67 61 -36 29 22 4 59 0
67 61 -36 29 22 -4 -59 0
67 61 -36 29 -22 4 -59 0
67 61 -36 29 -22 -4 59 0
67 61 -36 -29 22 4 -59 0
67 61 -36 -29 22 -4 59 0
67 61 -36 -29 -22 4 59 0
67 61 -36 -29 -22 -4 -59 0
67 -61 36 29 22 4 59 0
67 -61 36 29 22 -4 -59 0
67 -61 36 29 -22 4 -59 0
67 -61 36 29 -22 -4 59 0
67 -61 36 -29 22 4 -59 0
67 -61 36 -29 22 -4 59 0
67 -61 36 -29 -22 4 59 0
67 -61 36 -29 -22 -4 -59 0
67 -61 -36 29 22 4 -59 0
67 -61 -36 29 22 -4 59 0
67 -61 -36 29 -22 4 59 0
67 -61 -36 29 -22 -4 -59 0
67 -61 -36 -29 22 4 59 0
67 -61 -36 -29 22 -4 -59 0
67 -61 -36 -29 -22 4 -59 0
67 -61 -36 -29 -22 -4 59 0
-67 61 36 29 22 4 59 0
-67 61 36 29 22 -4 -59 0
-67 61 36 29 -22 4 -59 0
-67 61 36 29 -22 -4 59 0
-67 61 36 -29 22 4 -59 0
-67 61 36 -29 22 -4 59 0
-67 61 36 -29 -22 4 59 0
-67 61 36 -29 -22 -4 -59 0
-67 61 -36 29 22 4 -59 0
-67 61 -36 29 22 -4 59 0
-67 61 -36 29 -22 4 59 0
-67 61 -36 29 -22 -4 -59 0
-67 61 -36 -29 22 4 59 0
-67 61 -36 -29 22 -4 -59 0
-67 61 -36 -29 -22 4 -59 0
-67 61 -36 -29 -22 -4 59 0
-67 -61 36 29 22 4 -59 0
-67 -61 36 29 22 -4 59 0
-67 -61 36 29 -22 4 59 0
-67 -61 36 29 -22 -4 -59 0
-67 -61 36 -29 22 4 59 0
-67 -61 36 -29 22 -4 -59 0
-67 -61 36 -29 -22 4 -59 0
-67 -61 36 -29 -22 -4 59 0
-67 -61 -36 29 22 4 59 0
-67 -61 -36 29 22 -4 -59 0
-67 -61 -36 29 -22 4 -59 0
-67 -61 -36 29 -22 -4 59 0
-67 -61 -36 -29 22 4 -59 0
-67 -61 -36 -29 22 -4 59 0
-67 -61 -36 -29 -22 4 59 0
-67 -61 -36 -29 -22 -4 -59 0
30 9 2 13 1 59 78 0
30 9 2 13 1 -59 -78 0
30 9 2 13 -1 59 -78 0
30 9 2 13 -1 -59 78 0
30 9 2 -13 1 59 -78 0
30 9 2 -13 1 -59 78 0
30 9 2 -13 -1 59 78 0
30 9 2 -13 -1 -59 -78 0
30 9 -2 13 1 59 -78 0
30 9 -2 13 1 -59 78 0
30 9 -2 13 -1 59 78 0
30 9 -2 13 -1 -59 -78 0
30 9 -2 -13 1 59 78 0
30 9 -2 -13 1 -59 -78 0
30 9 -2 -13 -1 59 -78 0
30 9 -2 -13 -1 -59 78 0
30 -9 2 13 1 59 -78 0
30 -9 2 13 1 -59 78 0
30 -9 2 13 -1 59 78 0
30 -9 2 13 -1 -59 -78 0
30 -9 2 -13 1 59 78 0
30 -9 2 -13 1 -59 -78 0
30 -9 2 -13 -1 59 -78 0
30 -9 2 -13 -1 -59 78 0
30 -9 -2 13 1 59 78 0
30 -9 -2 13 1 -59 -78 0
30 -9 -2 13 -1 59 -78 0
30 -9 -2 13 -1 -59 78 0
30 -9 -2 -13 1 59 -78 0
30 -9 -2 -13 1 -59 78 0
30 -9 -2 -13 -1 59 78 0
30 -9 -2 -13 -1 -59 -78 0
-30 9 2 13 1 59 -78 0
-30 9 2 13 1 -59 78 0
-30 9 2 13 -1 59 78 0
-30 9 2 13 -1 -59 -78 0
-30 9 2 -13 1 59 78 0
-30 9 2 -13 1 -59 -78 0
-30 9 2 -13 -1 59 -78 0
-30 9 2 -13 -1 -59 78 0
-30 9 -2 13 1 59 78 0
-30 9 -2 13 1 -59 -78 0
-30 9 -2 13 -1 59 -78 0
-30 9 -2 13 -1 -59 78 0
-30 9 -2 -13 1 59 -78 0
-30 9 -2 -13 1 -59 78 0
-30 9 -2 -13 -1 59 78 0
-30 9 -2 -13 -1 -59 -78 0
-30 -9 2 13 1 59 78 0
-30 -9 2 13 1 -59 -78 0
-30 -9 2 13 -1 59 -78 0
-30 -9 2 13 -1 -59 78 0
-30 -9 2 -13 1 59 -78 0
-30 -9 2 -13 1 -59 78 0
-30 -9 2 -13 -1 59 78 0
-30 -9 2 -13 -1 -59 -78 0
-30 -9 -2 13 1 59 -78 0
-30 -9 -2 13 1 -59 78 0
-30 -9 -2 13 -1 59 78 0
-30 -9 -2 13 -1 -59 -78 0
-30 -9 -2 -13 1 59 78 0
-30 -9 -2 -13 1 -59 -78 0
-30 -9 -2 -13 -1 59 -78 0
-30 -9 -2 -13 -1 -59 78 0
32 5 75 78 18 0
32 5 75 -78 -18 0
32 5 -75 78 -18 0
32 5 -75 -78 18 0
32 -5 75 78 -18 0
32 -5 75 -78 18 0
32 -5 -75 78 18 0
32 -5 -75 -78 -18 0
-32 5 75 78 -18 0
-32 5 75 -78 18 0
-32 5 -75 78 18 0
-32 5 -75 -78 -18 0
-32 -5 75 78 18 0
-32 -5 75 -78 -18 0
-32 -5 -75 78 -18 0
-32 -5 -75 -78 18 0
11 3 48 18 -41 0
11 3 48 -18 41 0
11 3 -48 18 41 0
11 3 -48 -18 -41 0
11 -3 48 18 41 0
11 -3 48 -18 -41 0
11 -3 -48 18 -41 0
11 -3 -48 -18 41 0
-11 3 48 18 41 0
-11 3 48 -18 -41 0
-11 3 -48 18 -41 0
-11 3 -48 -18 41 0
-11 -3 48 18 -41 0
-11 -3 48 -18 41 0
-11 -3 -48 18 41 0
-11 -3 -48 -18 -41 0
27 12 56 17 41 37 0
27 12 56 17 -41 -37 0
27 12 56 -17 41 -37 0
27 12 56 -17 -41 37 0
27 12 -56 17 41 -37 0
27 12 -56 17 -41 37 0
27 12 -56 -17 41 37 0
27 12 -56 -17 -41 -37 0
27 -12 56 17 41 -37 0
27 -12 56 17 -41 37 0
27 -12 56 -17 41 37 0
27 -12 56 -17 -41 -37 0
27 -12 -56 17 41 37 0
27 -12 -56 17 -41 -37 0
27 -12 -56 -17 41 -37 0
27 -12 -56 -17 -41 37 0
-27 12 56 17 41 -37 0
-27 12 56 17 -41 37 0
-27 12 56 -17 41 37 0
-27 12 56 -17 -41 -37 0
-27 12 -56 17 41 37 0
-27 12 -56 17 -41 -37 0
-27 12 -56 -17 41 -37 0
-27 12 -56 -17 -41 37 0
-27 -12 56 17 41 37 0
-27 -12 56 17 -41 -37 0
-27 -12 56 -17 41 -37 0
-27 -12 56 -17 -41 37 0
-27 -12 -56 17 41 -37 0
-27 -12 -56 17 -41 37 0
-27 -12 -56 -17 41 37 0
-27 -12 -56 -17 -41 -37 0
42 20 37 -53 0
42 20 -37 53 0
42 -20 37 53 0
42 -20 -37 -53 0
-42 20 37 53 0
-42 20 -37 -53 0
-42 -20 37 -53 0
-42 -20 -37 53 0
26 10 71 25 53 70 0
26 10 71 25 -53 -70 0
26 10 71 -25 53 -70 0
26 10 71 -25 -53 70 0
26 10 -71 25 53 -70 0
26 10 -71 25 -53 70 0
26 10 -71 -25 53 70 0
26 10 -71 -25 -53 -70 0
26 -10 71 25 53 -70 0
26 -10 71 25 -53 70 0
26 -10 71 -25 53 70 0
26 -10 71 -25 -53 -70 0
26 -10 -71 25 53 70 0
26 -10 -71 25 -53 -70 0
26 -10 -71 -25 53 -70 0
26 -10 -71 -25 -53 70 0
-26 10 71 25 53 -70 0
-26 10 71 25 -53 70 0
-26 10 71 -25 53 70 0
-26 10 71 -25 -53 -70 0
-26 10 -71 25 53 70 0
-26 10 -71 25 -53 -70 0
-26 10 -71 -25 53 -70 0
-26 10 -71 -25 -53 70 0
-26 -10 71 25 53 70 0
-26 -10 71 25 -53 -70 0
-26 -10 71 -25 53 -70 0
-26 -10 71 -25 -53 70 0
-26 -10 -71 25 53 -70 0
-26 -10 -71 25 -53 70 0
-26 -10 -71 -25 53 70 0
-26 -10 -71 -25 -53 -70 0
8 54 57 21 45 70 66 0
8 54 57 21 45 -70 -66 0
8 54 57 21 -45 70 -66 0
8 54 57 21 -45 -70 66 0
8 54 57 -21 45 70 -66 0
8 54 57 -21 45 -70 66 0
8 54 57 -21 -45 70 66 0
8 54 57 -21 -45 -70 -66 0
8 54 -57 21 45 70 -66 0
8 54 -57 21 45 -70 66 0
8 54 -57 21 -45 70 66 0
8 54 -57 21 -45 -70 -66 0
8 54 -57 -21 45 70 66 0
8 54 -57 -21 45 -70 -66 0
8 54 -57 -21 -45 70 -66 0
8 54 -57 -21 -45 -70 66 0
8 -54 57 21 45 70 -66 0
8 -54 57 21 45 -70 66 0
8 -54 57 21 -45 70 66 0
8 -54 57 21 -45 -70 -66 0
8 -54 57 -21 45 70 66 0
8 -54 57 -21 45 -70 -66 0
8 -54 57 -21 -45 70 -66 0
8 -54 57 -21 -45 -70 66 0
8 -54 -57 21 45 70 66 0
8 -54 -57 21 45 -70 -66 0
8 -54 -57 21 -45 70 -66 0
8 -54 -57 21 -45 -70 66 0
8 -54 -57 -21 45 70 -66 0
8 -54 -57 -21 45 -70 66 0
8 -54 -57 -21 -45 70 66 0
8 -54 -57 -21 -45 -70 -66 0
-8 54 57 21 45 70 -66 0
-8 54 57 21 45 -70 66 0
-8 54 57 21 -45 70 66 0
-8 54 57 21 -45 -70 -66 0
-8 54 57 -21 45 70 66 0
-8 54 57 -21 45 -70 -66 0
-8 54 57 -21 -45 70 -66 0
-8 54 57 -21 -45 -70 66 0
-8 54 -57 21 45 70 66 0
-8 54 -57 21 45 -70 -66 0
-8 54 -57 21 -45 70 -66 0
-8 54 -57 21 -45 -70 66 0
-8 54 -57 -21 45 70 -66 0
-8 54 -57 -21 45 -70 66 0
-8 54 -57 -21 -45 70 66 0
-8 54 -57 -21 -45 -70 -66 0
-8 -54 57 21 45 70 66 0
-8 -54 57 21 45 -70 -66 0
-8 -54 57 21 -45 70 -66 0
-8 -54 57 21 -45 -70 66 0
-8 -54 57 -21 45 70 -66 0
-8 -54 57 -21 45 -70 66 0
-8 -54 57 -21 -45 70 66 0
-8 -54 57 -21 -45 -70 -66 0
-8 -54 -57 21 45 70 -66 0
-8 -54 -57 21 45 -70 66 0
-8 -54 -57 21 -45 70 66 0
-8 -54 -57 21 -45 -70 -66 0
-8 -54 -57 -21 45 70 66 0
-8 -54 -57 -21 45 -70 -66 0
-8 -54 -57 -21 -45 70 -66 0
-8 -54 -57 -21 -45 -70 66 0
28 49 14 33 -66 0
28 49 14 -33 66 0
28 49 -14 33 66 0
28 49 -14 -33 -66 0
28 -49 14 33 66 0
28 -49 14 -33 -66 0
28 -49 -14 33 -66 0
28 -49 -14 -33 66 0
-28 49 14 33 66 0
-28 49 14 -33 -66 0
-28 49 -14 33 -66 0
-28 49 -14 -33 66 0
-28 -49 14 33 -66 0
-28 -49 14 -33 66 0
-28 -49 -14 33 66 0
-28 -49 -14 -33 -66 0
42 36 10 -24 0
42 36 -10 24 0
42 -36 10 24 0
42 -36 -10 -24 0
-42 36 10 24 0
-42 36 -10 -24 0
-42 -36 10 -24 0
-42 -36 -10 24 0
30 6 60 5 24 -76 0
30 6 60 5 -24 76 0
30 6 60 -5 24 76 0
30 6 60 -5 -24 -76 0
30 6 -60 5 24 76 0
30 6 -60 5 -24 -76 0
30 6 -60 -5 24 -76 0
30 6 -60 -5 -24 76 0
30 -6 60 5 24 76 0
30 -6 60 5 -24 -76 0
30 -6 60 -5 24 -76 0
30 -6 60 -5 -24 76 0
30 -6 -60 5 24 -76 0
30 -6 -60 5 -24 76 0
30 -6 -60 -5 24 76 0
30 -6 -60 -5 -24 -76 0
-30 6 60 5 24 76 0
-30 6 60 5 -24 -76 0
-30 6 60 -5 24 -76 0
-30 6 60 -5 -24 76 0
-30 6 -60 5 24 -76 0
-30 6 -60 5 -24 76 0
-30 6 -60 -5 24 76 0
-30 6 -60 -5 -24 -76 0
-30 -6 60 5 24 -76 0
-30 -6 60 5 -24 76 0
-30 -6 60 -5 24 76 0
-30 -6 60 -5 -24 -76 0
-30 -6 -60 5 24 76 0
-30 -6 -60 5 -24 -76 0
-30 -6 -60 -5 24 -76 0
-30 -6 -60 -5 -24 76 0
47 79 9 33 76 -38 0
47 79 9 33 -76 38 0
47 79 9 -33 76 38 0
47 79 9 -33 -76 -38 0
47 79 -9 33 76 38 0
47 79 -9 33 -76 -38 0
47 79 -9 -33 76 -38 0
47 79 -9 -33 -76 38 0
47 -79 9 33 76 38 0
47 -79 9 33 -76 -38 0
47 -79 9 -33 76 -38 0
47 -79 9 -33 -76 38 0
47 -79 -9 33 76 -38 0
47 -79 -9 33 -76 38 0
47 -79 -9 -33 76 38 0
47 -79 -9 -33 -76 -38 0
-47 79 9 33 76 38 0
-47 79 9 33 -76 -38 0
-47 79 9 -33 76 -38 0
-47 79 9 -33 -76 38 0
-47 79 -9 33 76 -38 0
-47 79 -9 33 -76 38 0
-47 79 -9 -33 76 38 0
-47 79 -9 -33 -76 -38 0
-47 -79 9 33 76 -38 0
-47 -79 9 33 -76 38 0
-47 -79 9 -33 76 38 0
-47 -79 9 -33 -76 -38 0
-47 -79 -9 33 76 38 0
-47 -79 -9 33 -76 -38 0
-47 -79 -9 -33 76 -38 0
-47 -79 -9 -33 -76 38 0
11 2 38 -31 0
11 2 -38 31 0
11 -2 38 31 0
11 -2 -38 -31 0
-11 2 38 31 0
-11 2 -38 -31 0
-11 -2 38 -31 0
-11 -2 -38 31 0
32 63 40 21 31 68 0
32 63 40 21 -31 -68 0
32 63 40 -21 31 -68 0
32 63 40 -21 -31 68 0
32 63 -40 21 31 -68 0
32 63 -40 21 -31 68 0
32 63 -40 -21 31 68 0
32 63 -40 -21 -31 -68 0
32 -63 40 21 31 -68 0
32 -63 40 21 -31 68 0
32 -63 40 -21 31 68 0
32 -63 40 -21 -31 -68 0
32 -63 -40 21 31 68 0
32 -63 -40 21 -31 -68 0
32 -63 -40 -21 31 -68 0
32 -63 -40 -21 -31 68 0
-32 63 40 21 31 -68 0
-32 63 40 21 -31 68 0
-32 63 40 -21 31 68 0
-32 63 40 -21 -31 -68 0
-32 63 -40 21 31 68 0
-32 63 -40 21 -31 -68 0
-32 63 -40 -21 31 -68 0
-32 63 -40 -21 -31 68 0
-32 -63 40 21 31 68 0
-32 -63 40 21 -31 -68 0
-32 -63 40 -21 31 -68 0
-32 -63 40 -21 -31 68 0
-32 -63 -40 21 31 -68 0
-32 -63 -40 21 -31 68 0
-32 -63 -40 -21 31 68 0
-32 -63 -40 -21 -31 -68 0
67 68 -74 0
67 -68 74 0
-67 68 74 0
-67 -68 -74 0
19 65 12 74 15 0
19 65 12 -74 -15 0
19 65 -12 74 -15 0
19 65 -12 -74 15 0
19 -65 12 74 -15 0
19 -65 12 -74 15 0
19 -65 -12 74 15 0
19 -65 -12 -74 -15 0
-19 65 12 74 -15 0
-19 65 12 -74 15 0
-19 65 -12 74 15 0
-19 65 -12 -74 -15 0
-19 -65 12 74 15 0
-19 -65 12 -74 -15 0
-19 -65 -12 74 -15 0
-19 -65 -12 -74 15 0
7 61 1 15 69 0
7 61 1 -15 -69 0
7 61 -1 15 -69 0
7 61 -1 -15 69 0
7 -61 1 15 -69 0
7 -61 1 -15 69 0
7 -61 -1 15 69 0
7 -61 -1 -15 -69 0
-7 61 1 15 -69 0
-7 61 1 -15 69 0
-7 61 -1 15 69 0
-7 61 -1 -15 -69 0
-7 -61 1 15 69 0
-7 -61 1 -15 -69 0
-7 -61 -1 15 -69 0
-7 -61 -1 -15 69 0
34 17 69 -58 0
34 17 -69 58 0
34 -17 69 58 0
34 -17 -69 -58 0
-34 17 69 58 0
-34 17 -69 -58 0
-34 -17 69 -58 0
-34 -17 -69 58 0
26 29 58 -55 0
26 29 -58 55 0
26 -29 58 55 0
26 -29 -58 -55 0
-26 29 58 55 0
-26 29 -58 -55 0
-26 -29 58 -55 0
-26 -29 -58 55 0
52 3 20 55 -39 0
52 3 20 -55 39 0
52 3 -20 55 39 0
52 3 -20 -55 -39 0
52 -3 20 55 39 0
52 -3 20 -55 -39 0
52 -3 -20 55 -39 0
52 -3 -20 -55 39 0
-52 3 20 55 39 0
-52 3 20 -55 -39 0
-52 3 -20 55 -39 0
-52 3 -20 -55 39 0
-52 -3 20 55 -39 0
-52 -3 20 -55 39 0
-52 -3 -20 55 39 0
-52 -3 -20 -55 -39 0
43 35 71 49 39 62 0
43 35 71 49 -39 -62 0
43 35 71 -49 39 -62 0
43 35 71 -49 -39 62 0
43 35 -71 49 39 -62 0
43 35 -71 49 -39 62 0
43 35 -71 -49 39 62 0
43 35 -71 -49 -39 -62 0
43 -35 71 49 39 -62 0
43 -35 71 49 -39 62 0
43 -35 71 -49 39 62 0
43 -35 71 -49 -39 -62 0
43 -35 -71 49 39 62 0
43 -35 -71 49 -39 -62 0
43 -35 -71 -49 39 -62 0
43 -35 -71 -49 -39 62 0
-43 35 71 49 39 -62 0
-43 35 71 49 -39 62 0
-43 35 71 -49 39 62 0
-43 35 71 -49 -39 -62 0
-43 35 -71 49 39 62 0
-43 35 -71 49 -39 -62 0
-43 35 -71 -49 39 -62 0
-43 35 -71 -49 -39 62 0
-43 -35 71 49 39 62 0
-43 -35 71 49 -39 -62 0
-43 -35 71 -49 39 -62 0
-43 -35 71 -49 -39 62 0
-43 -35 -71 49 39 -62 0
-43 -35 -71 49 -39 62 0
-43 -35 -71 -49 39 62 0
-43 -35 -71 -49 -39 -62 0
8 13 48 25 14 62 72 0
8 13 48 25 14 -62 -72 0
8 13 48 25 -14 62 -72 0
8 13 48 25 -14 -62 72 0
8 13 48 -25 14 62 -72 0
8 13 48 -25 14 -62 72 0
8 13 48 -25 -14 62 72 0
8 13 48 -25 -14 -62 -72 0
8 13 -48 25 14 62 -72 0
8 13 -48 25 14 -62 72 0
8 13 -48 25 -14 62 72 0
8 13 -48 25 -14 -62 -72 0
8 13 -48 -25 14 62 72 0
8 13 -48 -25 14 -62 -72 0
8 13 -48 -25 -14 62 -72 0
8 13 -48 -25 -14 -62 72 0
8 -13 48 25 14 62 -72 0
8 -13 48 25 14 -62 72 0
8 -13 48 25 -14 62 72 0
8 -13 48 25 -14 -62 -72 0
8 -13 48 -25 14 62 72 0
8 -13 48 -25 14 -62 -72 0
8 -13 48 -25 -14 62 -72 0
8 -13 48 -25 -14 -62 72 0
8 -13 -48 25 14 62 72 0
8 -13 -48 25 14 -62 -72 0
8 -13 -48 25 -14 62 -72 0
8 -13 -48 25 -14 -62 72 0
8 -13 -48 -25 14 62 -72 0
8 -13 -48 -25 14 -62 72 0
8 -13 -48 -25 -14 62 72 0
8 -13 -48 -25 -14 -62 -72 0
-8 13 48 25 14 62 -72 0
-8 13 48 25 14 -62 72 0
-8 13 48 25 -14 62 72 0
-8 13 48 25 -14 -62 -72 0
-8 13 48 -25 14 62 72 0
-8 13 48 -25 14 -62 -72 0
-8 13 48 -25 -14 62 -72 0
-8 13 48 -25 -14 -62 72 0
-8 13 -48 25 14 62 72 0
-8 13 -48 25 14 -62 -72 0
-8 13 -48 25 -14 62 -72 0
-8 13 -48 25 -14 -62 72 0
-8 13 -48 -25 14 62 -72 0
-8 13 -48 -25 14 -62 72 0
-8 13 -48 -25 -14 62 72 0
-8 13 -48 -25 -14 -62 -72 0
-8 -13 48 25 14 62 72 0
-8 -13 48 25 14 -62 -72 0
-8 -13 48 25 -14 62 -72 0
-8 -13 48 25 -14 -62 72 0
-8 -13 48 -25 14 62 -72 0
-8 -13 48 -25 14 -62 72 0
-8 -13 48 -25 -14 62 72 0
-8 -13 48 -25 -14 -62 -72 0
-8 -13 -48 25 14 62 -72 0
-8 -13 -48 25 14 -62 72 0
-8 -13 -48 25 -14 62 72 0
-8 -13 -48 25 -14 -62 -72 0
-8 -13 -48 -25 14 62 72 0
-8 -13 -48 -25 14 -62 -72 0
-8 -13 -48 -25 -14 62 -72 0
-8 -13 -48 -25 -14 -62 72 0
28 57 72 46 0
28 57 -72 -46 0
28 -57 72 -46 0
28 -57 -72 46 0
-28 57 72 -46 0
-28 57 -72 46 0
-28 -57 72 46 0
-28 -57 -72 -46 0
27 22 75 45 46 77 0
27 22 75 45 -46 -77 0
27 22 75 -45 46 -77 0
27 22 75 -45 -46 77 0
27 22 -75 45 46 -77 0
27 22 -75 45 -46 77 0
27 22 -75 -45 46 77 0
27 22 -75 -45 -46 -77 0
27 -22 75 45 46 -77 0
27 -22 75 45 -46 77 0
27 -22 75 -45 46 77 0
27 -22 75 -45 -46 -77 0
27 -22 -75 45 46 77 0
27 -22 -75 45 -46 -77 0
27 -22 -75 -45 46 -77 0
27 -22 -75 -45 -46 77 0
-27 22 75 45 46 -77 0
-27 22 75 45 -46 77 0
-27 22 75 -45 46 77 0
-27 22 75 -45 -46 -77 0
-27 22 -75 45 46 77 0
-27 22 -75 45 -46 -77 0
-27 22 -75 -45 46 -77 0
-27 22 -75 -45 -46 77 0
-27 -22 75 45 46 77 0
-27 -22 75 45 -46 -77 0
-27 -22 75 -45 46 -77 0
-27 -22 75 -45 -46 77 0
-27 -22 -75 45 46 -77 0
-27 -22 -75 45 -46 77 0
-27 -22 -75 -45 46 77 0
-27 -22 -75 -45 -46 -77 0
23 56 54 -77 0
23 56 -54 77 0
23 -56 54 77 0
23 -56 -54 -77 0
-23 56 54 77 0
-23 56 -54 -77 0
-23 -56 54 -77 0
-23 -56 -54 77 0
